\ENCODING=ISO-8859-1
\Problem name: 

Maximize
 obj: 7 x0 + 7 x1 + 9 x2 + 7 x3 + 10 x4
Subject To
 c0: 3 x0 + 7 x1 - 9 x2 - 7 x3 - 4 x4 <= 2
 c1: - 7 x0 + 10 x1 - 5 x2 - 3 x3 + 2 x4 <= 1
 c2: 5 x0 + 3 x1 - 7 x3 + 10 x4 <= 11
Bounds
 0 <= x0 <= 1
 0 <= x1 <= 1
 0 <= x2 <= 1
 0 <= x3 <= 1
 0 <= x4 <= 1
End
